[VALIDATOR STDOUT]
Checking plan: /home/jfan5/Safety-gen/runs/benchmark/optic/grippers_20260205_114054/grippers/optic_results/grippers-n2-r14-o12-s12001.plan
Plan executed successfully - checking goal
Plan valid
Final value: 42 

Successful plans:
Value: 42
 /home/jfan5/Safety-gen/runs/benchmark/optic/grippers_20260205_114054/grippers/optic_results/grippers-n2-r14-o12-s12001.plan 42
